 vasp.5.3.3 18Dez12 (build Jan 21 2013 20:40:09) gamma-only

 executed on             LinuxIFC date 2013.08.19  17:48:31

 INCAR:
 POTCAR:    PAW Cu
 POTCAR:    PAW Ag

 POTCAR:    PAW Cu
   VRHFIN =Cu: d10 p1

   TITEL  = PAW Cu
   POMASS =   63.546; ZVAL   =   11.000    mass and valenz
   ENMAX  =  273.246; ENMIN  =  204.934 eV
   QCUT   =   -4.481; QGAM   =    8.963    optimization parameters

   Description
     l     E      TYP  RCUT    TYP  RCUT
     2   .000     23  2.300
     2   .000     23  2.300
     0   .000     23  2.300
     0   .000     23  2.300
     1  -.200     23  2.300
     1   .000     23  2.300
     3   .000      7   .000

 POTCAR:    PAW Ag
   VRHFIN =Ag : s1 d10

   TITEL  = PAW Ag
   POMASS =  107.868; ZVAL   =   11.000    mass and valenz
   ENMAX  =  249.842; ENMIN  =  187.381 eV
   QCUT   =   -4.285; QGAM   =    8.570    optimization parameters

   Description
     l     E      TYP  RCUT    TYP  RCUT
     2   .000     23  2.400
     2   .000     23  2.400
     0   .000     23  2.400
     0   .000     23  2.400
     1  -.200     23  2.400
     1  1.500     23  2.400
     3   .000      7   .000

 Optimization of the real space projectors (new method)

 maximal supplied QI-value         = 16.25
 optimisation between [QCUT,QGAM] = [  8.45, 16.90] = [ 20.00, 80.00] Ry
 Optimized for a Real-space Cutoff    1.62 Angstroem

   l    n(q)    QCUT    max X(q) W(low)/X(q) W(high)/X(q)  e(spline)
   2      7     8.451     4.974    0.39E-04    0.11E-03    0.44E-07
   2      7     8.451    13.453    0.28E-03    0.77E-03    0.23E-06
   0      8     8.451    13.269    0.22E-04    0.90E-05    0.51E-08
   0      8     8.451    44.490    0.95E-04    0.29E-04    0.66E-07
   1      8     8.451     5.266    0.75E-04    0.48E-04    0.20E-07
   1      8     8.451     7.318    0.28E-03    0.28E-03    0.99E-07
 Optimization of the real space projectors (new method)

 maximal supplied QI-value         = 15.68
 optimisation between [QCUT,QGAM] = [  8.47, 16.94] = [ 20.09, 80.35] Ry
 Optimized for a Real-space Cutoff    1.57 Angstroem

   l    n(q)    QCUT    max X(q) W(low)/X(q) W(high)/X(q)  e(spline)
   2      7     8.470     3.829    0.30E-04    0.80E-04    0.36E-07
   2      7     8.470    20.330    0.36E-03    0.83E-03    0.26E-06
   0      8     8.470    16.667    0.17E-04    0.93E-05    0.58E-08
   0      8     8.470    80.503    0.29E-03    0.32E-03    0.56E-07
   1      7     8.470     6.677    0.22E-04    0.87E-04    0.25E-07
   1      7     8.470     8.951    0.19E-03    0.30E-03    0.66E-07
  PAW Cu                                :
  PAW Ag                                :

 POSCAR: Cu Ag
  positions in cartesian coordinates
 exchange correlation table for  LEXCH =        7
   RHO(1)=    0.500       N(1)  =     2000
   RHO(2)=  100.500       N(2)  =     4000

 VTST: version 3.0b, (11/11/12)

 CHAIN: initializing optimizer

 OPT: Using VASP Conjugate-Gradient optimizer
 CHAIN: Read ICHAIN            0

 POSCAR: Cu Ag
  positions in cartesian coordinates

 ion  position               nearest neighbor table
   1  0.723  0.573  0.500-   7 2.64  37 2.67   9 2.68  21 2.70  17 2.71  13 2.71
   2  0.573  0.723  0.500-   4 2.64  37 2.67  11 2.68  21 2.70  19 2.71  13 2.71
   3  0.278  0.573  0.500-   5 2.64  35 2.67  10 2.67  22 2.69  18 2.71  14 2.72
   4  0.426  0.722  0.500-   2 2.64  35 2.67  11 2.68  22 2.69  19 2.71  14 2.72
   5  0.278  0.427  0.500-   3 2.64  34 2.67  10 2.67  23 2.69  18 2.70  15 2.72
   6  0.427  0.278  0.500-   8 2.64  34 2.67  12 2.67  23 2.69  20 2.70  15 2.72
   7  0.722  0.426  0.500-   1 2.64  38 2.67   9 2.68  24 2.69  17 2.71  16 2.72
   8  0.573  0.278  0.500-   6 2.64  38 2.67  12 2.67  24 2.69  20 2.71  16 2.72
   9  0.669  0.500  0.618-   7 2.68   1 2.68  16 2.70  25 2.70  13 2.71  28 2.71  37 3.04  38 3.04
                            33 3.06
  10  0.331  0.500  0.618-   5 2.67   3 2.67  14 2.70  15 2.71  27 2.71  26 2.72  34 3.04  35 3.04
                            33 3.06
  11  0.500  0.669  0.618-   4 2.68   2 2.68  14 2.70  25 2.70  13 2.71  26 2.71  37 3.04  35 3.04
                            33 3.06
  12  0.500  0.331  0.618-   6 2.67   8 2.67  16 2.70  15 2.71  27 2.71  28 2.72  34 3.04  38 3.04
                            33 3.06
  13  0.649  0.649  0.608-  25 2.58   9 2.71  11 2.71   1 2.71   2 2.71  37 2.72
  14  0.352  0.648  0.609-  26 2.58  11 2.70  10 2.70  35 2.72   3 2.72   4 2.72
  15  0.351  0.351  0.608-  27 2.58  10 2.71  12 2.71   6 2.72   5 2.72  34 2.72
  16  0.648  0.352  0.609-  28 2.58   9 2.70  12 2.70  38 2.72   8 2.72   7 2.72
  17  0.667  0.500  0.381-  32 2.70  21 2.70  24 2.70  29 2.70   1 2.71   7 2.71  36 3.01  38 3.02
                            37 3.02
  18  0.333  0.500  0.381-  30 2.70  31 2.70  22 2.70  23 2.70   5 2.70   3 2.71  36 3.01  35 3.02
                            34 3.02
  19  0.500  0.667  0.381-  30 2.70  21 2.70  22 2.70  29 2.70   2 2.71   4 2.71  36 3.01  35 3.02
                            37 3.02
  20  0.500  0.333  0.381-  32 2.70  31 2.70  24 2.70  23 2.70   6 2.70   8 2.71  36 3.01  38 3.02
                            34 3.02
  21  0.648  0.648  0.394-  29 2.65  37 2.68   2 2.70   1 2.70  17 2.70  19 2.70
  22  0.351  0.649  0.394-  30 2.65  35 2.69   4 2.69   3 2.69  19 2.70  18 2.70
  23  0.352  0.352  0.394-  31 2.65  34 2.68   5 2.69   6 2.69  20 2.70  18 2.70
  24  0.649  0.351  0.394-  32 2.65  38 2.69   7 2.69   8 2.69  17 2.70  20 2.70
  25  0.576  0.576  0.708-  13 2.58   9 2.70  11 2.70  33 2.72  28 2.73  26 2.73
  26  0.425  0.575  0.708-  14 2.58  33 2.70  11 2.71  10 2.72  25 2.73  27 2.73
  27  0.423  0.423  0.708-  15 2.58  12 2.71  10 2.71  33 2.72  28 2.73  26 2.73
  28  0.575  0.425  0.708-  16 2.58  33 2.70   9 2.71  12 2.72  25 2.73  27 2.73
  29  0.575  0.575  0.289-  21 2.65  36 2.68  32 2.70  30 2.70  17 2.70  19 2.70
  30  0.425  0.575  0.289-  22 2.65  36 2.69  19 2.70  18 2.70  29 2.70  31 2.70
  31  0.425  0.425  0.289-  23 2.65  36 2.68  20 2.70  18 2.70  32 2.70  30 2.70
  32  0.575  0.425  0.289-  24 2.65  36 2.69  17 2.70  20 2.70  29 2.70  31 2.70
  33  0.500  0.500  0.603-  38 2.64  35 2.64  34 2.64  37 2.64  28 2.70  26 2.70  25 2.72  27 2.72
                             9 3.06  11 3.06  12 3.06  10 3.06
  34  0.426  0.426  0.500-  33 2.64  35 2.67  38 2.67   6 2.67   5 2.67  36 2.68  23 2.68  15 2.72
                            20 3.02  18 3.02  12 3.04  10 3.04
  35  0.426  0.574  0.500-  33 2.64   3 2.67  37 2.67  34 2.67   4 2.67  36 2.68  22 2.69  14 2.72
                            19 3.02  18 3.02  11 3.04  10 3.04
  36  0.500  0.500  0.394-  38 2.68  35 2.68  37 2.68  34 2.68  31 2.68  29 2.68  32 2.69  30 2.69
                            17 3.01  19 3.01  20 3.01  18 3.01
  37  0.574  0.574  0.500-  33 2.64  38 2.67  35 2.67   1 2.67   2 2.67  36 2.68  21 2.68  13 2.72
                            17 3.02  19 3.02   9 3.04  11 3.04
  38  0.574  0.426  0.500-  33 2.64   8 2.67  37 2.67  34 2.67   7 2.67  36 2.68  24 2.69  16 2.72
                            17 3.02  20 3.02   9 3.04  12 3.04

IMPORTANT INFORMATION: All symmetrisations will be switched off!
NOSYMM: (Re-)initialisation of all symmetry stuff for point group C_1.

 KPOINTS: Automatic Mesh

Automatic generation of k-mesh.
Space group operators:
 irot       det(A)        alpha          n_x          n_y          n_z        tau_x        tau_y        tau_z
    1     1.000000     0.000000     1.000000     0.000000     0.000000     0.000000     0.000000     0.000000

 Subroutine IBZKPT returns following result:

 Found      1 irreducible k-points:

 Following reciprocal coordinates:
            Coordinates               Weight
  0.000000  0.000000  0.000000      1.000000

 Following cartesian coordinates:
            Coordinates               Weight
  0.000000  0.000000  0.000000      1.000000

 I would recommend the setting:
   dimension x,y,z NGX =    73 NGY =   73 NGZ =   73
 SYSTEM =  Pt cube particle
 POSCAR =  Cu Ag

 Startparameter for this run:
   NWRITE =      2    write-flag & timer
   PREC   = normal    normal or accurate (medium, high low for compatibility)
   ISTART =      0    job   : 0-new  1-cont  2-samecut
   ICHARG =      2    charge: 1-file 2-atom 10-const
   ISPIN  =      1    spin polarized calculation?
   LNONCOLLINEAR =      F non collinear calculations
   LSORBIT =      F    spin-orbit coupling
   INIWAV =      1    electr: 0-lowe 1-rand  2-diag
   LASPH  =      F    aspherical Exc in radial PAW
   METAGGA=      F    non-selfconsistent MetaGGA calc.

 Electronic Relaxation 1
   ENCUT  =  274.0 eV  20.14 Ry    4.49 a.u.  24.29 24.29 24.29*2*pi/ulx,y,z
   ENINI  =  274.0     initial cutoff
   ENAUG  =  516.5 eV  augmentation charge cutoff
   NELM   =     60;   NELMIN=  2; NELMDL= -5     # of ELM steps
   EDIFF  = 0.1E-05   stopping-criterion for ELM
   LREAL  =      T    real-space projection
   NLSPLINE    = F    spline interpolate recip. space projectors
   LCOMPAT=      F    compatible to vasp.4.4
   GGA_COMPAT  = T    GGA compatible to vasp.4.4-vasp.4.6
   LMAXPAW     = -100 max onsite density
   LMAXMIX     =    2 max onsite mixed and CHGCAR
   VOSKOWN=      0    Vosko Wilk Nusair interpolation
   ROPT   =   -0.00050  -0.00050
 Ionic relaxation
   EDIFFG = -.1E-01   stopping-criterion for IOM
   NSW    =    250    number of steps for IOM
   NBLOCK =      1;   KBLOCK =    250    inner block; outer block
   IBRION =      2    ionic relax: 0-MD 1-quasi-New 2-CG
   NFREE  =      1    steps in history (QN), initial steepest desc. (CG)
   ISIF   =      0    stress and relaxation
   IWAVPR =     11    prediction:  0-non 1-charg 2-wave 3-comb
   ISYM   =      0    0-nonsym 1-usesym 2-fastsym
   LCORR  =      T    Harris-Foulkes like correction to forces

   POTIM  = 0.1000    time-step for ionic-motion
   TEIN   =    0.0    initial temperature
   TEBEG  =    0.0;   TEEND  =   0.0 temperature during run
   SMASS  =  -3.00    Nose mass-parameter (am)
   estimated Nose-frequenzy (Omega)   =  0.10E-29 period in steps =****** mass=  -0.740E-26a.u.
   SCALEE = 1.0000    scale energy and forces
   NPACO  =    256;   APACO  = 16.0  distance and # of slots for P.C.
   PSTRESS=    0.0 pullay stress

  Mass of Ions in am
   POMASS =  63.55107.87
  Ionic Valenz
   ZVAL   =  11.00 11.00
  Atomic Wigner-Seitz radii
  virtual crystal weights
   VCA    =   1.00  1.00
   NELECT =     418.0000    total number of electrons
   NUPDOWN=      -1.0000    fix difference up-down

 DOS related values:
   EMIN   =  10.00;   EMAX   =-10.00  energy-range for DOS
   EFERMI =   0.00
   ISMEAR =     0;   SIGMA  =   0.20  broadening in eV -4-tet -1-fermi 0-gaus

 Electronic relaxation 2 (details)
   IALGO  =     68    algorithm
   LDIAG  =      T    sub-space diagonalisation (order eigenvalues)
   LSUBROT=      T    optimize rotation matrix (better conditioning)
   TURBO    =      0    0=normal 1=particle mesh
   IRESTART =      0    0=no restart 2=restart with 2 vectors
   NREBOOT  =      0    no. of reboots
   NMIN     =      0    reboot dimension
   EREF     =   0.00    reference energy to select bands
   IMIX   =      4    mixing-type and parameters
     AMIX     =   0.40;   BMIX     =  1.00
[...]

[...]

 d Force = 0.2864298E-03[-0.651E-04, 0.638E-03]  d Energy = 0.2589067E-03 0.275E-04
 d Force = 0.4582006E+02[ 0.458E+02, 0.458E+02]  d Ewald  = 0.4582007E+02-0.137E-04

[...]

 d Force = 0.4707549E-04[-0.389E-04, 0.133E-03]  d Energy = 0.4634670E-04 0.729E-06
 d Force =-0.4195738E+01[-0.420E+01,-0.419E+01]  d Ewald  =-0.4195734E+01-0.360E-05

[...]

 d Force =-0.2512728E-07[-0.118E-06, 0.673E-07]  d Energy = 0.2799570E-06-0.305E-06
 d Force =-0.4139194E+00[-0.414E+00,-0.414E+00]  d Ewald  =-0.4139194E+00 0.786E-09

[...]

 d Force =-0.1051382E-04[-0.836E-04, 0.626E-04]  d Energy = 0.1936176E-05-0.124E-04
 d Force =-0.2945729E+02[-0.295E+02,-0.295E+02]  d Ewald  =-0.2945729E+02 0.117E-05

[...]

 d Force = 0.2577104E-04[ 0.371E-05, 0.478E-04]  d Energy = 0.1578967E-04 0.998E-05
 d Force = 0.1684611E+02[ 0.168E+02, 0.168E+02]  d Ewald  = 0.1684611E+02 0.110E-05

 stress matrix after NEB project (eV)
      0.00000      0.00000      0.00000
      0.00000      0.00000      0.00000
      0.00000      0.00000      0.00000
  FORCES: max atom, RMS     0.014121    0.005598
  FORCE total and by dimension    0.034511    0.009633
  Stress total and by dimension    0.000000    0.000000

 FEWALD executed in parallel

 real space projection operators:
  max/ min on nodes  :        528.89        467.16

[...]

 eigenvalue-minimisations  :   347
 total energy-change (2. order) : 0.3053654E-05  (-0.4450702E-06)
 number of electron     418.0001021 magnetization
 augmentation part      263.5972116 magnetization

 Broyden mixing:
  rms(total) = 0.29422E-03    rms(broyden)= 0.29414E-03
  rms(prec ) = 0.31663E-03
  weight for this iteration     100.00

 eigenvalues of (default mixing * dielectric matrix)
  average eigenvalue GAMMA=   1.2876
  2.4005  0.9946  0.4677

[...]

----------------------------------------- Iteration   32(   5)  ---------------------------------------

 eigenvalue-minimisations  :   269
 total energy-change (2. order) :-0.8008647E-07  (-0.1344104E-06)
 number of electron     418.0001021 magnetization
 augmentation part      263.5972116 magnetization

 Free energy of the ion-electron system (eV)
  alpha Z        PSCENC =       334.47473255
  Ewald energy   TEWEN  =     91645.50722876
  -1/2 Hartree   DENC   =   -137106.03617996
  -exchange  EXHF       =         0.00000000
  -V(xc)+E(xc)   XCENC  =      1284.42558297
  PAW double counting   =     40077.07435265   -44459.12483070
  entropy T*S    EENTRO =        -0.43614106
  eigenvalues    EBANDS =     -2685.72888766
  atomic energy  EATOM  =     50807.32091778
  free energy    TOTEN  =      -102.52322467 eV

  energy without entropy =     -102.08708361  energy(sigma->0) =     -102.30515414

 average (electrostatic) potential at core
  the test charge radii are     1.0053  1.1249
  (the norm of the test charge is              1.0000)
       1 -46.9867       2 -46.9867       3 -46.9863       4 -46.9853       5 -46.9870
       6 -46.9870       7 -46.9853       8 -46.9863       9 -47.1498      10 -47.1495
      11 -47.1498      12 -47.1495      13 -46.9874      14 -46.9884      15 -46.9880
      16 -46.9884      17 -47.1512      18 -47.1521      19 -47.1512      20 -47.1521
      21 -46.9891      22 -46.9901      23 -46.9911      24 -46.9901      25 -46.9894
      26 -46.9878      27 -46.9890      28 -46.9878      29 -46.9905      30 -46.9919
      31 -46.9919      32 -46.9919      33 -48.7937      34 -48.8005      35 -48.8010
      36 -48.7940      37 -48.8016      38 -48.8009

 E-fermi :  -3.3403     XC(G=0):  -1.7152     alpha+bet : -0.7748

 k-point   1 :       0.0000    0.0000    0.0000
  band No.  band energies     occupation
      1     -11.1110      2.00000
      2     -10.1061      2.00000
      3     -10.0162      2.00000
      4     -10.0045      2.00000
      5     -10.0042      2.00000
      6      -9.8959      2.00000
      7      -9.7728      2.00000
      8      -9.7660      2.00000
      9      -9.7659      2.00000
     10      -9.6558      2.00000
     11      -9.6440      2.00000
     12      -9.5626      2.00000
     13      -9.5503      2.00000
     14      -9.5496      2.00000
     15      -9.1685      2.00000
     16      -9.1684      2.00000
     17      -9.1629      2.00000
     18      -9.0998      2.00000
     19      -9.0992      2.00000
     20      -9.0800      2.00000
     21      -8.6832      2.00000
     22      -8.6816      2.00000
     23      -8.6812      2.00000
     24      -8.6762      2.00000
     25      -8.6605      2.00000
     26      -8.6602      2.00000
     27      -8.5279      2.00000
     28      -8.4976      2.00000
     29      -8.4294      2.00000
     30      -8.4215      2.00000
     31      -8.3789      2.00000
     32      -8.3785      2.00000
     33      -8.3706      2.00000
     34      -7.8588      2.00000
     35      -7.8587      2.00000
     36      -7.8570      2.00000
     37      -7.8212      2.00000
     38      -7.7223      2.00000
     39      -7.7000      2.00000
     40      -7.6331      2.00000
     41      -7.1915      2.00000
     42      -7.1845      2.00000
     43      -7.1843      2.00000
     44      -7.0998      2.00000
     45      -6.9788      2.00000
     46      -6.9760      2.00000
     47      -6.9758      2.00000
     48      -6.9655      2.00000
     49      -6.9637      2.00000
     50      -6.9579      2.00000
     51      -6.9577      2.00000
     52      -6.9536      2.00000
     53      -6.9051      2.00000
     54      -6.9022      2.00000
     55      -6.9020      2.00000
     56      -6.7879      2.00000
     57      -6.7873      2.00000
     58      -6.7858      2.00000
     59      -6.7344      2.00000
     60      -6.7213      2.00000
[...]
    236      -0.5186      0.00000
    237      -0.2867      0.00000
    238      -0.2861      0.00000
    239      -0.2847      0.00000
    240      -0.1763      0.00000
    241      -0.1668      0.00000
    242      -0.1659      0.00000
    243       0.6160      0.00000
    244       0.6163      0.00000
    245       0.6211      0.00000
    246       0.6506      0.00000
    247       0.6531      0.00000
    248       0.7587      0.00000
    249       0.8090      0.00000
    250       0.8102      0.00000

 soft charge-density along one line, spin component           1
         0         1         2         3         4         5         6         7         8         9
 total charge-density along one line

------------------------ aborting loop because EDIFF is reached ----------------------------------------

 VOLUME and BASIS-vectors are now :
  energy-cutoff  :      274.00
  volume of cell :     5832.00
      direct lattice vectors                 reciprocal lattice vectors
    18.000000000  0.000000000  0.000000000     0.055555556  0.000000000  0.000000000
     0.000000000 18.000000000  0.000000000     0.000000000  0.055555556  0.000000000
     0.000000000  0.000000000 18.000000000     0.000000000  0.000000000  0.055555556

  length of vectors
    18.000000000 18.000000000 18.000000000     0.055555556  0.055555556  0.055555556

 FORCES acting on ions
    electron-ion (+dipol)            ewald-force                    non-local-force                 convergence-correction
   -.187E+04 -.647E+03 -.233E+01   0.186E+04 0.644E+03 0.231E+01   0.362E+01 0.263E+01 0.317E-01   -.844E-04 -.937E-03 -.170E-02
   -.647E+03 -.187E+04 -.234E+01   0.644E+03 0.186E+04 0.232E+01   0.263E+01 0.362E+01 0.318E-01   -.984E-03 -.843E-04 -.169E-02
   0.187E+04 -.649E+03 -.370E+00   -.186E+04 0.647E+03 0.336E+00   -.363E+01 0.265E+01 0.346E-01   0.563E-03 -.568E-03 -.103E-02
   0.651E+03 -.186E+04 -.366E+01   -.648E+03 0.186E+04 0.365E+01   -.265E+01 0.362E+01 0.163E-01   0.149E-03 -.663E-03 -.666E-03
   0.187E+04 0.647E+03 0.693E+01   -.186E+04 -.644E+03 -.695E+01   -.361E+01 -.262E+01 0.192E-01   0.577E-03 0.678E-03 -.144E-02
   0.647E+03 0.187E+04 0.689E+01   -.644E+03 -.186E+04 -.691E+01   -.262E+01 -.361E+01 0.196E-01   0.605E-03 0.557E-03 -.148E-02
   -.186E+04 0.651E+03 -.371E+01   0.186E+04 -.648E+03 0.370E+01   0.362E+01 -.265E+01 0.168E-01   -.604E-03 0.164E-03 -.692E-03
   -.649E+03 0.187E+04 -.413E+00   0.647E+03 -.186E+04 0.380E+00   0.265E+01 -.363E+01 0.345E-01   -.556E-03 0.537E-03 -.107E-02
   -.146E+04 0.914E+00 -.104E+04   0.146E+04 -.915E+00 0.104E+04   0.413E-01 -.203E-02 0.431E-01   -.672E-03 -.935E-03 -.874E-03
   0.146E+04 0.240E+01 -.103E+04   -.146E+04 -.239E+01 0.103E+04   -.420E-01 -.550E-02 0.394E-01   -.560E-03 0.587E-03 -.107E-02
   0.914E+00 -.146E+04 -.104E+04   -.914E+00 0.146E+04 0.104E+04   -.860E-03 0.410E-01 0.433E-01   -.980E-03 -.683E-03 -.886E-03
   0.244E+01 0.146E+04 -.103E+04   -.243E+01 -.146E+04 0.103E+04   -.561E-02 -.425E-01 0.394E-01   0.525E-03 -.505E-03 -.107E-02
   -.127E+04 -.127E+04 -.900E+03   0.127E+04 0.127E+04 0.899E+03   0.310E+01 0.311E+01 0.677E+00   0.314E-04 0.519E-04 -.133E-02
   0.127E+04 -.127E+04 -.903E+03   -.127E+04 0.126E+04 0.902E+03   -.310E+01 0.307E+01 0.701E+00   -.406E-03 0.516E-03 -.777E-03
   0.127E+04 0.127E+04 -.891E+03   -.127E+04 -.127E+04 0.890E+03   -.310E+01 -.310E+01 0.647E+00   -.689E-03 -.624E-03 -.128E-02
   -.127E+04 0.127E+04 -.903E+03   0.126E+04 -.127E+04 0.902E+03   0.307E+01 -.310E+01 0.701E+00   0.596E-03 -.442E-03 -.724E-03
   -.146E+04 -.141E+01 0.103E+04   0.146E+04 0.142E+01 -.103E+04   0.494E-02 -.628E-02 -.206E-01   0.257E-03 -.176E-03 -.700E-03
   0.146E+04 -.314E+01 0.104E+04   -.146E+04 0.314E+01 -.104E+04   0.314E-02 0.608E-02 -.198E-01   -.197E-03 -.521E-03 -.330E-03
   -.143E+01 -.146E+04 0.103E+04   0.144E+01 0.146E+04 -.103E+04   -.632E-02 0.495E-02 -.207E-01   -.210E-03 0.283E-03 -.690E-03
   -.316E+01 0.146E+04 0.104E+04   0.316E+01 -.146E+04 -.104E+04   0.606E-02 0.305E-02 -.198E-01   -.539E-03 -.157E-03 -.343E-03
   -.127E+04 -.127E+04 0.896E+03   0.127E+04 0.127E+04 -.895E+03   0.309E+01 0.309E+01 -.689E+00   -.807E-03 -.792E-03 -.153E-02
   0.127E+04 -.127E+04 0.899E+03   -.127E+04 0.127E+04 -.899E+03   -.307E+01 0.308E+01 -.703E+00   0.727E-03 -.125E-02 -.741E-04
   0.127E+04 0.127E+04 0.906E+03   -.127E+04 -.127E+04 -.905E+03   -.307E+01 -.307E+01 -.730E+00   0.119E-02 0.123E-02 -.731E-04
   -.127E+04 0.127E+04 0.899E+03   0.127E+04 -.127E+04 -.899E+03   0.308E+01 -.307E+01 -.703E+00   -.126E-02 0.739E-03 -.665E-04
   -.640E+03 -.640E+03 -.177E+04   0.639E+03 0.640E+03 0.176E+04   0.522E+00 0.523E+00 0.440E+01   0.114E-03 0.155E-03 0.319E-04
   0.642E+03 -.635E+03 -.177E+04   -.642E+03 0.635E+03 0.176E+04   -.524E+00 0.495E+00 0.442E+01   -.473E-03 0.712E-03 0.544E-03
   0.647E+03 0.647E+03 -.176E+04   -.647E+03 -.647E+03 0.176E+04   -.552E+00 -.551E+00 0.443E+01   -.995E-03 -.935E-03 0.149E-02
   -.635E+03 0.642E+03 -.177E+04   0.635E+03 -.642E+03 0.176E+04   0.495E+00 -.523E+00 0.442E+01   0.692E-03 -.439E-03 0.631E-03
   -.644E+03 -.644E+03 0.177E+04   0.644E+03 0.644E+03 -.176E+04   0.545E+00 0.545E+00 -.439E+01   0.102E-03 0.126E-03 0.662E-03
   0.638E+03 -.645E+03 0.177E+04   -.638E+03 0.645E+03 -.176E+04   -.529E+00 0.543E+00 -.440E+01   -.299E-03 -.412E-03 0.133E-02
   0.638E+03 0.638E+03 0.177E+04   -.637E+03 -.637E+03 -.177E+04   -.523E+00 -.523E+00 -.438E+01   -.162E-04 0.116E-04 0.208E-02
   -.645E+03 0.638E+03 0.177E+04   0.645E+03 -.638E+03 -.176E+04   0.543E+00 -.529E+00 -.440E+01   -.432E-03 -.267E-03 0.132E-02
   0.143E+01 0.145E+01 -.860E+03   -.143E+01 -.145E+01 0.860E+03   -.189E-02 -.194E-02 0.219E+00   0.189E-02 0.204E-02 -.116E-02
   0.614E+03 0.614E+03 0.736E+00   -.614E+03 -.614E+03 -.736E+00   -.117E+00 -.117E+00 -.238E-03   0.116E-02 0.125E-02 -.318E-02
   0.615E+03 -.616E+03 -.245E+01   -.615E+03 0.616E+03 0.245E+01   -.113E+00 0.115E+00 -.166E-02   0.124E-02 -.144E-02 -.179E-02
   -.199E+01 -.198E+01 0.855E+03   0.199E+01 0.198E+01 -.855E+03   0.234E-02 0.235E-02 -.227E+00   -.134E-02 -.135E-02 0.183E-02
   -.616E+03 -.616E+03 -.360E+01   0.616E+03 0.616E+03 0.360E+01   0.113E+00 0.113E+00 0.196E-02   -.306E-02 -.302E-02 -.178E-02
   -.616E+03 0.615E+03 -.249E+01   0.616E+03 -.615E+03 0.249E+01   0.115E+00 -.113E+00 -.159E-02   -.149E-02 0.130E-02 -.192E-02
   0.175E-02 0.146E-02 -.285E+00   -.682E-12 0.341E-12 -.296E-11   -.106E-01 -.960E-02 0.289E+00   -.625E-02 -.527E-02 -.215E-01

 POSITION                                       TOTAL-FORCE (eV/Angst)
     12.88392     10.21682      9.00013         0.004933      0.000290      0.004785
     10.21684     12.88390      9.00013         0.000264      0.004938      0.004822
      5.11566     10.22393      8.99131        -0.003594     -0.000789      0.000341
      7.76947     12.88414      9.00244        -0.001420      0.002818      0.000977
      5.11451      7.77629      8.97722        -0.004344     -0.001464     -0.000874
      7.77628      5.11451      8.97726        -0.001397     -0.004362     -0.000860
     12.88414      7.76946      9.00247         0.002841     -0.001397      0.001083
     10.22393      5.11564      8.99140        -0.000795     -0.003518      0.000335
     11.76055      8.99760     10.96852         0.003307     -0.003283      0.000612
      6.23274      8.99204     10.95847        -0.002609      0.002459     -0.000411
      8.99739     11.76055     10.96847        -0.002273      0.003219      0.000782
      8.99199      6.23272     10.95854         0.002479     -0.002557     -0.000662
     11.54634     11.54635     10.89806         0.001828      0.002033      0.004627
      6.45297     11.54005     10.90117        -0.004900      0.002985     -0.001217
      6.44398      6.44414     10.87669        -0.002793     -0.002599      0.000397
     11.54004      6.45298     10.90122         0.003010     -0.004743     -0.001203
     11.76531      9.00003      7.03468         0.003220      0.001179     -0.001477
      6.23906      9.00466      7.02465        -0.001732      0.001271     -0.003530
      9.00006     11.76528      7.03466         0.001173      0.003206     -0.001512
      9.00469      6.23904      7.02468         0.001279     -0.001772     -0.003492
     11.54605     11.54603      7.10585         0.002623      0.002591     -0.000369
      6.45535     11.54856      7.09999        -0.001523      0.002115     -0.002647
      6.45740      6.45737      7.08790        -0.001266     -0.001288     -0.003245
     11.54859      6.45533      7.10005         0.002174     -0.001577     -0.002648
     10.32339     10.32340     12.63992        -0.004425     -0.004306      0.002683
      7.67077     10.31377     12.64349        -0.002019     -0.001179      0.000112
      7.65948      7.65952     12.63129         0.002394      0.003270      0.001655
     10.31375      7.67079     12.64350        -0.001100     -0.001999      0.000115
     10.32765     10.32762      5.35717         0.001620      0.001567      0.001407
      7.68090     10.33001      5.35494         0.000520      0.001472      0.001140
      7.68251      7.68244      5.35046         0.000701      0.000691      0.001506
     10.33006      7.68085      5.35497         0.001487      0.000524      0.001084
      8.99520      8.99520     10.95211        -0.000289     -0.000268     -0.003226
      7.62831      7.62829      8.99277        -0.001351     -0.001411     -0.002932
      7.62803     10.37112      8.99967         0.000933     -0.000544     -0.001486
      9.00280      9.00278      7.04708         0.001719      0.001563      0.002592
     10.37070     10.37069      9.00305        -0.000095     -0.000087      0.002280
     10.37114      7.62801      8.99972        -0.000581      0.000950     -0.001542
    total drift:                               -0.015096     -0.013410     -0.017603

  FREE ENERGIE OF THE ION-ELECTRON SYSTEM (eV)
  free  energy   TOTEN  =      -102.52322467 eV

  energy  without entropy=     -102.08708361  energy(sigma->0) =     -102.30515414

 d Force = 0.8186880E-04[ 0.521E-04, 0.112E-03]  d Energy = 0.8643424E-04-0.457E-05
 d Force =-0.2444677E+01[-0.244E+01,-0.245E+01]  d Ewald  =-0.2444674E+01-0.352E-05

 stress matrix after NEB project (eV)
      0.00000      0.00000      0.00000
      0.00000      0.00000      0.00000
      0.00000      0.00000      0.00000
  FORCES: max atom, RMS     0.006906    0.004041
  FORCE total and by dimension    0.024908    0.004938
  Stress total and by dimension    0.000000    0.000000
 Conjugate gradient step on ions:
 trial-energy change:   -0.000086  1 .order   -0.000082   -0.000112   -0.000052
  (g-gl).g = 0.116E-04      g.g   = 0.115E-04  gl.gl    = 0.133E-04
 g(Force)  = 0.115E-04   g(Stress)= 0.000E+00 ortho     =-0.393E-06
 gamma     =   0.87028
 trial     =  10.01363
 opt step  =  15.17468  (harmonic =  18.77191) maximal distance =0.00297053
 next E    =  -102.523239   (d E  =  -0.00010)

 reached required accuracy - stopping structural energy minimisation